0000000000000000
0000000000000000
0011111111110000
0011111111111000
0011111111111100
0011111111111100
0000001000111100
0001111000111100
0001111000111100
0001111000011100
0001111000011100
0001111000011100
0001111000111100
0001111000011100
0001111000000000
0001111000000000
